TITL 03srv209 in Pbca
CELL 0.71073 7.35 9.541 12.842 90 90 90
ZERR 4 0.002 0.002 0.003 0 0 0
LATT 1
SYMM 0.5-X,-Y,0.5+Z
SYMM -X,0.5+Y,0.5-Z
SYMM 0.5+X,0.5-Y,-Z
SFAC C H O N
UNIT 32 40 16 8
L.S. 10
PLAN  5
TEMP -153
BOND $H
FMAP 2.0
REM <HKL>/Users/luc/Developer/Seattle/TestStructures\03srv209.hkl</HKL>
 
WGHT    0.054300    0.253100
EXTI    0.032262
FVAR       0.89020
N     4    0.544799    0.114043    0.104872    11.00000    0.01991    0.01581 =
         0.01933   -0.00093   -0.00085    0.00167
AFIX  43
H0    2    0.578146    0.029199    0.085951    11.00000   -1.20000
AFIX   0
O2    3    0.362888    0.160596   -0.035892    11.00000    0.03916    0.02514 =
         0.02132   -0.00418   -0.00816    0.01018
O3    3    0.696699    0.119203    0.260635    11.00000    0.02821    0.02118 =
         0.02913    0.00009   -0.01025   -0.00053
C1    1    0.432362    0.196644    0.046466    11.00000    0.02225    0.01783 =
         0.01847    0.00064    0.00129    0.00253
C2    1    0.411497    0.336392    0.099994    11.00000    0.02862    0.01547 =
         0.02053    0.00046   -0.00068    0.00267
AFIX  23
H2A   2    0.282041    0.355607    0.115787    11.00000   -1.20000
H2B   2    0.459483    0.412956    0.055801    11.00000   -1.20000
AFIX   0
C3    1    0.522494    0.322941    0.200451    11.00000    0.02154    0.01544 =
         0.02250   -0.00194   -0.00047   -0.00105
AFIX  23
H3A   2    0.620513    0.394042    0.202748    11.00000   -1.20000
H3B   2    0.443716    0.334786    0.262359    11.00000   -1.20000
AFIX   0
C4    1    0.601264    0.176482    0.196618    11.00000    0.01833    0.01698 =
         0.02124   -0.00035   -0.00061   -0.00286
HKLF 4
 
REM  03srv209 in Pbca
REM R1 =  0.0344 for   1195 Fo > 4sig(Fo)  and  0.0368 for all   1314 data
REM     65 parameters refined using      0 restraints
 
END  
     
WGHT      0.0540      0.2542 
REM Highest difference peak  0.328,  deepest hole -0.216,  1-sigma level  0.048
Q1    1   0.5617  0.2499  0.2010  11.00000  0.05    0.33
Q2    1   0.4184  0.2684  0.0749  11.00000  0.05    0.32
Q3    1   0.4965  0.1548  0.0719  11.00000  0.05    0.28
Q4    1   0.5703  0.1442  0.1465  11.00000  0.05    0.28
Q5    1   0.4662  0.3316  0.1505  11.00000  0.05    0.26
